Version identifier: 12.10.0.0 | 2019-11-26 | 843d4de
CPXPARAM_WorkMem                                 28672
Tried aggregator 2 times.
MIP Presolve modified 80 coefficients.
Aggregator did 75 substitutions.
Reduced MIP has 395 rows, 450 columns, and 1910 nonzeros.
Reduced MIP has 450 binaries, 0 generals, 0 SOSs, and 0 indicators.
Presolve time = 0,00 sec. (2,54 ticks)
Found incumbent of value 2140,000000 after 0,01 sec. (3,69 ticks)
Probing time = 0,00 sec. (0,98 ticks)
Tried aggregator 1 time.
Detecting symmetries...
MIP Presolve eliminated 65 rows and 0 columns.
MIP Presolve added 130 rows and 0 columns.
Reduced MIP has 460 rows, 450 columns, and 1975 nonzeros.
Reduced MIP has 450 binaries, 0 generals, 0 SOSs, and 0 indicators.
Presolve time = 0,00 sec. (2,21 ticks)
Probing time = 0,00 sec. (0,96 ticks)
Clique table members: 1400.
MIP emphasis: balance optimality and feasibility.
MIP search method: dynamic search.
Parallel mode: deterministic, using up to 16 threads.
Root relaxation solution time = 0,00 sec. (2,37 ticks)

        Nodes                                         Cuts/
   Node  Left     Objective  IInf  Best Integer    Best Bound    ItCnt     Gap

*     0+    0                         2140,0000        0,0000           100,00%
*     0+    0                         1128,0000        0,0000           100,00%
*     0+    0                         1029,0000        0,0000           100,00%
      0     0      428,0000   264     1029,0000      428,0000      204   58,41%
      0     0      433,2079   264     1029,0000     Cuts: 215      303   57,90%
*     0+    0                         1014,0000      433,2079            57,28%
      0     0      438,2223   264     1014,0000     Cuts: 215      343   56,78%
*     0+    0                          957,0000      438,2223            54,21%
      0     0      439,6732   264      957,0000     Cuts: 215      379   54,06%
      0     0      439,9713   264      957,0000       Cuts: 4      405   54,03%
      0     0      440,4942   264      957,0000     Cuts: 141      414   53,97%
      0     0      440,6706   264      957,0000       Cuts: 7      424   53,95%
      0     0      440,8511   264      957,0000     Cuts: 129      432   53,93%
      0     0      440,9958   264      957,0000   ZeroHalf: 1      441   53,92%
      0     0      441,1145   264      957,0000     Cuts: 103      450   53,91%
*     0+    0                          853,0000      441,1145            48,29%
      0     0      441,1475   264      853,0000   ZeroHalf: 2      466   48,21%
      0     0      444,1016   264      853,0000     Cuts: 130      521   47,94%
      0     0      445,9255   264      853,0000      Cuts: 11      568   47,72%
      0     0      445,9847   264      853,0000     Cuts: 127      580   47,72%
      0     0      446,1137   264      853,0000       Cuts: 8      613   47,70%
      0     0      446,2511   264      853,0000      Cuts: 66      632   47,68%
      0     0      446,4469   264      853,0000       Cuts: 3      645   47,66%
      0     0      446,4762   264      853,0000      Cuts: 30      648   47,66%
*     0+    0                          850,0000      446,4762            47,47%
      0     2      446,4762   269      850,0000      450,2316      648   47,03%
Elapsed time = 0,27 sec. (178,26 ticks, tree = 0,02 MB, solutions = 7)
   1974  1041      708,2124   254      850,0000      541,1640    55934   36,33%

Performing restart 1

Repeating presolve.
Tried aggregator 1 time.
Reduced MIP has 460 rows, 450 columns, and 1975 nonzeros.
Reduced MIP has 450 binaries, 0 generals, 0 SOSs, and 0 indicators.
Presolve time = 0,00 sec. (1,15 ticks)
Tried aggregator 1 time.
Reduced MIP has 460 rows, 450 columns, and 1975 nonzeros.
Reduced MIP has 450 binaries, 0 generals, 0 SOSs, and 0 indicators.
Presolve time = 0,00 sec. (1,52 ticks)
Represolve time = 0,02 sec. (10,93 ticks)
   4513     0      451,9388   269      850,0000      Cuts: 16   172018   24,46%
   4513     0      455,5879   269      850,0000      Cuts: 22   172098   24,46%
   4513     0      458,1360   269      850,0000       Cuts: 6   172150   24,46%
   4513     0      461,2914   269      850,0000      Cuts: 20   172213   24,46%
   4513     0      462,5232   269      850,0000      Cuts: 11   172250   24,46%
   4513     2      462,5232   269      850,0000      642,0804   172250   24,46%
   4518     5      485,4815   373      850,0000      642,0804   173183   24,46%
   4677    49      602,8662   309      850,0000      642,0804   179498   24,46%
   5790   856      707,1037   110      850,0000      642,0804   237128   24,46%
   7589  2078      727,6403   243      850,0000      642,0804   294114   24,46%
   8909  3713      746,0815   273      850,0000      642,0804   383127   24,46%
   9916  4244      739,0933   195      850,0000      642,0804   417966   24,46%

Performing restart 2

Repeating presolve.
Tried aggregator 1 time.
Reduced MIP has 460 rows, 450 columns, and 1975 nonzeros.
Reduced MIP has 450 binaries, 0 generals, 0 SOSs, and 0 indicators.
Presolve time = 0,00 sec. (1,15 ticks)
Tried aggregator 1 time.
Reduced MIP has 460 rows, 450 columns, and 1975 nonzeros.
Reduced MIP has 450 binaries, 0 generals, 0 SOSs, and 0 indicators.
Presolve time = 0,00 sec. (1,52 ticks)
Represolve time = 0,03 sec. (21,60 ticks)
  10473     0      466,5979   269      850,0000       Cuts: 4   470011   24,46%
  10473     0      466,9895   269      850,0000       Cuts: 5   470038   24,46%
  10473     0      467,3310   269      850,0000       Cuts: 2   470076   24,46%
  10473     0      467,4526   269      850,0000   ZeroHalf: 2   470087   24,46%
  10473     0      468,2078   269      850,0000       Cuts: 3   470127   24,46%
  10473     0      468,5175   269      850,0000       Cuts: 4   470157   24,46%
  10473     2      468,5175   268      850,0000      642,0804   470157   24,46%
  17295  5051      832,5560   183      850,0000      665,4182   738596   21,72%
Elapsed time = 4,76 sec. (3949,84 ticks, tree = 2,77 MB, solutions = 7)
* 17773+ 5272                          849,0000      682,3853            19,62%
  25132  9812      822,7083    47      849,0000      719,1981  1048338   15,29%
* 29999+12356                          845,0000      735,5778            12,95%
  31799 12977      768,3750   160      845,0000      742,0280  1358906   12,19%
  38218 15265        cutoff            845,0000      759,6381  1613087   10,10%
  44665 16530      819,1667    64      845,0000      774,9266  1844236    8,29%
  50070 16411      833,5051   135      845,0000      788,2917  2041803    6,71%
  56500 13991      843,4286   123      845,0000      805,8750  2297139    4,63%
  66188  5721        cutoff            845,0000      829,4712  2622741    1,84%

Clique cuts applied:  46
Cover cuts applied:  922
Flow cuts applied:  24
Mixed integer rounding cuts applied:  83
Zero-half cuts applied:  3
Lift and project cuts applied:  19
Gomory fractional cuts applied:  44

Root node processing (before b&c):
  Real time             =    0,25 sec. (177,89 ticks)
Parallel b&c, 16 threads:
  Real time             =   14,39 sec. (10745,10 ticks)
  Sync time (average)   =    4,01 sec.
  Wait time (average)   =    0,01 sec.
                          ------------
Total (root+branch&cut) =   14,64 sec. (10922,99 ticks)
